NAME : brd14051
COMMENT : BR Deutschland in den Grenzen von 1989 (Bachem/Wottawa)
TYPE : TSP
DIMENSION : 14051
EDGE_WEIGHT_TYPE : EUC_2D
NODE_COORD_SECTION
    1    2918    6528
    2    2925    6597
    3    2926    6609
    4    2927    6312
    5    2930    6328
    6    2934    6545
    7    2938    7412
    8    2941    6456
    9    2945    6284
   10    2947    6663
   11    2948    5475
   12    2948    6513
   13    2948    7456
   14    2950    6350
EOF
